

*************************************************************

   NEOS Server Version 6.0
   Job#     : 18284219
   Password : lWbNOwRM
   User     : 
   Solver   : milp:Gurobi:AMPL
   Start    : 2026-01-26 08:16:27
   End      : 2026-01-26 08:19:37
   Host     : prod-sub-1.neos-server.org

   Disclaimer:

   This information is provided without any express or
   implied warranty. In particular, there is no warranty
   of any kind concerning the fitness of this
   information for any particular purpose.

   Announcements:
*************************************************************
You are using the solver gurobi_ampl.
Checking ampl.mod for gurobi_options...
Checking ampl.com for gurobi_options...
Executing AMPL.
processing data.
processing commands.
Executing on prod-exec-5.neos-server.org
N = 450


"option presolve 0;" used, but "option presolve 10;" might work better.
450 variables, all binary
101025 constraints, all linear; 202050 nonzeros
	101025 inequality constraints
1 linear objective; 450 nonzeros.

Gurobi 12.0.3:   tech:threads = 4
  pre:solve = 2
  alg:iisfind = 1
Set parameter LogToConsole to value 1
  tech:outlev = 1

AMPL MP initial flat model has 450 variables (0 integer, 450 binary);
Objectives: 1 linear; 
Constraints:  101025 linear;

AMPL MP final model has 450 variables (0 integer, 450 binary);
Objectives: 1 linear; 
Constraints:  101025 linear;


Set parameter InfUnbdInfo to value 1
Gurobi Optimizer version 12.0.3 build v12.0.3rc0 (linux64 - "Rocky Linux 8.10 (Green Obsidian)")

CPU model: Intel(R) Xeon(R) CPU E5-2430 0 @ 2.20GHz, instruction set [SSE2|AVX]
Thread count: 12 physical cores, 24 logical processors, using up to 4 threads

Non-default parameters:
InfUnbdInfo  1
Presolve  2
Threads  4

Optimize a model with 101025 rows, 450 columns and 202050 nonzeros
Model fingerprint: 0xeda6449a
Variable types: 0 continuous, 450 integer (0 binary)
Coefficient statistics:
  Matrix range     [1e+00, 1e+00]
  Objective range  [1e+00, 1e+00]
  Bounds range     [1e+00, 1e+00]
  RHS range        [1e+00, 2e+00]
Found heuristic solution: objective 19.0000000
Presolve removed 97353 rows and 0 columns
Presolve time: 0.07s
Presolved: 3672 rows, 450 columns, 15657 nonzeros
Variable types: 0 continuous, 450 integer (450 binary)
Performing another presolve...
Presolve removed 186 rows and 0 columns
Presolve time: 0.44s
Root relaxation presolved: 3486 rows, 450 columns, 21174 nonzeros

Warning: Markowitz tolerance tightened to 0.03125

Root relaxation: objective 4.915624e+01, 2755 iterations, 1.17 seconds (1.07 work units)

    Nodes    |    Current Node    |     Objective Bounds      |     Work
 Expl Unexpl |  Obj  Depth IntInf | Incumbent    BestBd   Gap | It/Node Time

     0     0   49.15624    0  347   19.00000   49.15624   159%     -    1s
H    0     0                      20.0000000   49.15624   146%     -    1s
H    0     0                      21.0000000   49.15624   134%     -    1s
H    0     0                      23.0000000   49.15624   114%     -    2s
     0     0   30.00000    0  120   23.00000   30.00000  30.4%     -    2s
H    0     0                      24.0000000   30.00000  25.0%     -    2s
     0     0   30.00000    0  120   24.00000   30.00000  25.0%     -    2s
H    0     0                      25.0000000   30.00000  20.0%     -    2s
     0     0   30.00000    0  118   25.00000   30.00000  20.0%     -    2s
     0     0   30.00000    0  115   25.00000   30.00000  20.0%     -    3s
     0     0   30.00000    0  114   25.00000   30.00000  20.0%     -    3s
     0     0   30.00000    0  116   25.00000   30.00000  20.0%     -    3s
H    0     0                      26.0000000   30.00000  15.4%     -    3s
     0     0   30.00000    0  108   26.00000   30.00000  15.4%     -    3s
     0     0   30.00000    0  116   26.00000   30.00000  15.4%     -    3s
     0     0   30.00000    0  116   26.00000   30.00000  15.4%     -    3s
     0     2   30.00000    0  116   26.00000   30.00000  15.4%     -    4s
    19    66   30.00000    5   91   26.00000   30.00000  15.4%   182    5s
H  240   277                      27.0000000   30.00000  11.1%  73.5    5s
H  498   251                      28.0000000   30.00000  7.14%  60.7    6s
  1548   747   29.40000   37  347   28.00000   30.00000  7.14%  59.3   12s
  1560   755   29.96923   40  107   28.00000   30.00000  7.14%  58.8   15s
  1652   841   30.00000   27   54   28.00000   30.00000  7.14%  71.7   20s
  3182   889   30.00000   39   73   28.00000   30.00000  7.14%  67.1   25s
  5209  1226   29.50000   60   72   28.00000   30.00000  7.14%  65.6   30s
  6682  1722   29.42857   47   77   28.00000   30.00000  7.14%  68.0   35s
  9137  2705   29.25000   28   63   28.00000   30.00000  7.14%  69.9   40s
 10435  3347 infeasible   45        28.00000   30.00000  7.14%  69.6   45s
 12652  3907   29.33333   32   74   28.00000   30.00000  7.14%  71.3   50s
 13982  4251   30.00000   26   78   28.00000   30.00000  7.14%  72.3   55s
 16383  5177   29.61111   29  100   28.00000   30.00000  7.14%  73.7   60s
*16908   433              40      29.0000000   30.00000  3.45%  73.6   61s
 17453   246   30.00000   44  347   29.00000   30.00000  3.45%  74.1   66s
 17470   258   30.00000   31  113   29.00000   30.00000  3.45%  74.0   70s
 17899   228   30.00000   54   69   29.00000   30.00000  3.45%  75.3   75s
 18595   136   30.00000   46   67   29.00000   30.00000  3.45%  75.5   80s
 18777   186 infeasible   50        29.00000   30.00000  3.45%  75.6   85s
 20711   156   30.00000   52   67   29.00000   30.00000  3.45%  77.0   90s
 22241   163 infeasible   55        29.00000   30.00000  3.45%  78.3   95s
 24010   115 infeasible   73        29.00000   30.00000  3.45%  79.6  100s
 24289    99   30.00000   46   82   29.00000   30.00000  3.45%  79.7  105s
 25033   142   30.00000   50  225   29.00000   30.00000  3.45%  80.3  122s
 25035   143   30.00000   48  347   29.00000   30.00000  3.45%  80.3  125s
 25048   152   30.00000   51  120   29.00000   30.00000  3.45%  80.3  130s
 25273   168   30.00000   53   71   29.00000   30.00000  3.45%  81.0  135s
 25740   184 infeasible   64        29.00000   30.00000  3.45%  80.9  140s
 26235   264   30.00000   71   48   29.00000   30.00000  3.45%  80.9  145s
 26642   336   30.00000   74   42   29.00000   30.00000  3.45%  80.8  150s
 28592   545   30.00000   73   61   29.00000   30.00000  3.45%  80.3  155s
 29711   519   30.00000   74   79   29.00000   30.00000  3.45%  80.8  160s
 31121   635   30.00000   75   75   29.00000   30.00000  3.45%  81.0  165s
 32186   665 infeasible   68        29.00000   30.00000  3.45%  81.5  170s
 33512   639   30.00000   81   75   29.00000   30.00000  3.45%  81.6  176s
 34941   596   30.00000   68   73   29.00000   30.00000  3.45%  82.4  180s
 36448   526   30.00000   87   64   29.00000   30.00000  3.45%  83.1  186s
*37069   135              74      30.0000000   30.00000  0.00%  83.3  187s

Cutting planes:
  Gomory: 1
  Cover: 11
  Clique: 247
  Flow cover: 9
  Zero half: 9

Explored 37350 nodes (3134198 simplex iterations) in 187.76 seconds (199.32 work units)
Thread count was 4 (of 24 available processors)

Solution count 10: 30 29 28 ... 20

Optimal solution found (tolerance 1.00e-04)
Best objective 3.000000000000e+01, best bound 3.000000000000e+01, gap 0.0000%
Gurobi 12.0.3: optimal solution; objective 30
3.1342e+06 simplex iterations
37350 branching nodes
clique_size = 30

Vertices in clique
==================
7
30
42
49
61
85
98
120
131
138
160
174
187
209
212
234
249
258
275
291
305
327
335
346
363
390
391
417
433
443

NEOS Server Home

